Solver command line: ['C:\\Program Files\\IBM\\ILOG\\CPLEX_Studio2211\\cplex\\bin\\x64_win64\\cplex.exe']


Welcome to IBM(R) ILOG(R) CPLEX(R) Interactive Optimizer 22.1.1.0
  with Simplex, Mixed Integer & Barrier Optimizers
5725-A06 5725-A29 5724-Y48 5724-Y49 5724-Y54 5724-Y55 5655-Y21
Copyright IBM Corp. 1988, 2022.  All Rights Reserved.

Type 'help' for a list of available commands.
Type 'help' followed by a command name for more
information on commands.

CPLEX> Logfile 'cplex.log' closed.
Logfile 'C:\Users\wangy\Documents\GitHub\re_optimization\result_site_specific\tmpyrlttawy.cplex.log' open.
CPLEX> Problem 'C:\Users\wangy\Documents\GitHub\re_optimization\result_site_specific\tmp49uiupyx.pyomo.lp' read.
Read time = 0.22 sec. (7.28 ticks)
CPLEX> Problem name         : C:\Users\wangy\Documents\GitHub\re_optimization\result_site_specific\tmp49uiupyx.pyomo.lp
Objective sense      : Minimize
Variables            :   52617  [Nneg: 27764,  Free: 8786,  Binary: 7,
                                 Other: 16060]
Objective nonzeros   :      14
Linear constraints   :   73052  [Less: 39437,  Greater: 3,  Equal: 33612]
  Nonzeros           :  181211
  RHS nonzeros       :    3725

Variables            : Min LB: 0.000000         Max UB: 1.000000       
Objective nonzeros   : Min   : 1.000000         Max   : 1.000000       
Linear constraints   :
  Nonzeros           : Min   : 0.004106646      Max   : 100000.0       
  RHS nonzeros       : Min   : 0.01600000       Max   : 1000.000       
CPLEX> Version identifier: 22.1.1.0 | 2022-11-27 | 9160aff4d
Tried aggregator 3 times.
MIP Presolve eliminated 48727 rows and 29748 columns.
Aggregator did 7610 substitutions.
Reduced MIP has 16715 rows, 15259 columns, and 48610 nonzeros.
Reduced MIP has 5 binaries, 0 generals, 0 SOSs, and 0 indicators.
Presolve time = 0.12 sec. (152.13 ticks)
Found incumbent of value 195025.108760 after 0.16 sec. (176.16 ticks)
Probing time = 0.02 sec. (0.93 ticks)
Tried aggregator 1 time.
Detecting symmetries...
Reduced MIP has 16715 rows, 15259 columns, and 48610 nonzeros.
Reduced MIP has 5 binaries, 0 generals, 0 SOSs, and 0 indicators.
Presolve time = 0.02 sec. (28.98 ticks)
Probing time = 0.00 sec. (0.84 ticks)
MIP emphasis: balance optimality and feasibility.
MIP search method: dynamic search.
Parallel mode: deterministic, using up to 16 threads.
Root relaxation solution time = 0.52 sec. (453.01 ticks)

        Nodes                                         Cuts/
   Node  Left     Objective  IInf  Best Integer    Best Bound    ItCnt     Gap

*     0+    0                       195025.1088    -3993.1663           102.05%
*     0+    0                         2345.9798    -3993.1663           270.21%
      0     0     2177.3634     1     2345.9798     2177.3634       51    7.19%
*     0+    0                         2345.9218     2177.3634             7.19%
      0     0        cutoff           2345.9218                    292    0.00%
Elapsed time = 0.88 sec. (811.07 ticks, tree = 0.01 MB, solutions = 3)

Root node processing (before b&c):
  Real time             =    0.89 sec. (813.55 ticks)
Parallel b&c, 16 threads:
  Real time             =    0.00 sec. (0.00 ticks)
  Sync time (average)   =    0.00 sec.
  Wait time (average)   =    0.00 sec.
                          ------------
Total (root+branch&cut) =    0.89 sec. (813.55 ticks)

Solution pool: 3 solutions saved.

MIP - Integer optimal solution:  Objective =  2.3459217914e+03
Solution time =    0.89 sec.  Iterations = 292  Nodes = 0
Deterministic time = 813.70 ticks  (913.24 ticks/sec)

CPLEX> Incumbent solution written to file 'C:\Users\wangy\Documents\GitHub\re_optimization\result_site_specific\tmpsgnkqz65.cplex.sol'.
CPLEX> 
